44
2 49 10 
2 61 19 
2 58 76 
3 33 31 35 
2 1 36 
3 118 111 38 
2 22 115 
2 46 55 
2 82 52 
3 15 108 86 
3 90 78 81 
3 75 73 60 
3 28 107 116 
2 25 91 
2 94 100 
2 43 40 
3 39 14 103 
3 16 64 8 
3 66 120 96 
3 4 34 47 
3 13 112 104 
3 6 87 72 
3 67 45 26 
3 27 37 80 
2 70 88 
3 54 18 93 
3 65 79 56 
3 84 105 42 
3 99 24 57 
3 30 106 5 
3 41 3 17 
3 117 92 44 
3 9 68 98 
3 11 97 85 
3 113 89 2 
3 51 48 109 
2 7 102 
3 71 23 119 
3 32 74 63 
3 21 29 110 
3 53 83 50 
3 12 20 77 
3 95 59 62 
3 101 69 114 
